4018 3430
4015 3521
4007 3585
3996 3644
3988 3658
3984 3696
3978 3714
3975 3733
3968 3750
3964 3768
3955 3799
3944 3834
3937 3853
3926 3886
3913 3915
3898 3922
3895 3943
3879 3963
3865 3995
3845 4019
3835 4033
3806 4068
3764 4082
3738 4098
3696 4112
3678 4120
3645 4123
3616 4134
3579 4139
3567 4149
3505 4159
3456 4170
3327 4173
3500 4168
3562 4158
3574 4148
3603 4137
3635 4131
3662 4122
3692 4114
3726 4108
3753 4095
3775 4071
3810 4050
3836 4030
3849 4001
3874 3984
3886 3954
3896 3924
3902 3920
3925 3905
3928 3862
3939 3851
3952 3820
3959 3785
3966 3766
3969 3745
3977 3731
3980 3698
3985 3677
3990 3656
3998 3642
4013 3523
4016 3502
